
******************************************************************************
This program contains Ipopt, a library for large-scale nonlinear optimization.
 Ipopt is released as open source code under the Eclipse Public License (EPL).
         For more information visit http://projects.coin-or.org/Ipopt

This version of Ipopt was compiled from source code available at
    https://github.com/IDAES/Ipopt as part of the Institute for the Design of
    Advanced Energy Systems Process Systems Engineering Framework (IDAES PSE
    Framework) Copyright (c) 2018-2019. See https://github.com/IDAES/idaes-pse.

This version of Ipopt was compiled using HSL, a collection of Fortran codes
    for large-scale scientific computation.  All technical papers, sales and
    publicity material resulting from use of the HSL codes within IPOPT must
    contain the following acknowledgement:
        HSL, a collection of Fortran codes for large-scale scientific
        computation. See http://www.hsl.rl.ac.uk.
******************************************************************************

This is Ipopt version 3.13.2, running with linear solver ma27.

Number of nonzeros in equality constraint Jacobian...:      808
Number of nonzeros in inequality constraint Jacobian.:        0
Number of nonzeros in Lagrangian Hessian.............:      702

Total number of variables............................:      351
                     variables with only lower bounds:      108
                variables with lower and upper bounds:      189
                     variables with only upper bounds:        0
Total number of equality constraints.................:      350
Total number of inequality constraints...............:        0
        inequality constraints with only lower bounds:        0
   inequality constraints with lower and upper bounds:        0
        inequality constraints with only upper bounds:        0

iter    objective    inf_pr   inf_du lg(mu)  ||d||  lg(rg) alpha_du alpha_pr  ls
   0  0.0000000e+00 1.49e+00 2.42e-14  -1.0 0.00e+00    -  0.00e+00 0.00e+00   0
   1  1.5177428e+01 1.02e+00 1.36e+06  -1.0 7.90e+06    -  1.71e-02 3.80e-02h  1
   2  1.5437449e+01 1.02e+00 1.36e+06  -1.0 1.07e+07    -  2.44e-02 2.53e-04h  1
   3  1.5515908e+01 1.02e+00 1.36e+06  -1.0 2.48e+07    -  7.92e-03 5.12e-05h  1
   4  3.0695312e+01 9.99e-01 3.25e+06  -1.0 2.57e+07    -  7.41e-03 5.98e-03h  1
   5  5.3577393e+01 9.83e-01 5.37e+06  -1.0 2.52e+07    -  1.30e-02 5.41e-03h  2
   6  5.8224350e+01 9.82e-01 5.47e+06  -1.0 2.39e+07    -  1.83e-02 9.24e-04h  5
   7  5.8800653e+01 9.82e-01 5.47e+06  -1.0 2.37e+07    -  2.79e-02 1.12e-04h  8
   8  5.9087060e+01 9.82e-01 5.47e+06  -1.0 2.36e+07    -  2.90e-02 5.52e-05h  9
   9r 5.9087060e+01 9.82e-01 9.99e+02  -0.0 0.00e+00    -  0.00e+00 4.57e-07R 12
iter    objective    inf_pr   inf_du lg(mu)  ||d||  lg(rg) alpha_du alpha_pr  ls
  10r 5.9087143e+01 9.10e-01 9.95e+02  -0.0 1.71e+03    -  4.42e-03 5.03e-03f  1
  11r 5.9087159e+01 8.93e-01 9.88e+02  -0.0 1.01e+03    -  1.51e-02 6.24e-03f  1
  12r 5.9087162e+01 8.89e-01 9.84e+02  -0.0 2.11e+02    -  5.39e-02 4.04e-03f  1
  13r 5.9087174e+01 8.24e-01 9.29e+02  -0.0 8.62e+01    -  7.24e-02 5.61e-02f  1
  14r 5.9087174e+01 8.24e-01 9.99e+02  -0.1 0.00e+00    -  0.00e+00 1.62e-07R  2
  15r 5.9087157e+01 8.21e-01 9.96e+02  -0.1 1.19e+02    -  6.89e-02 2.58e-03f  1
  16r 5.9086979e+01 7.86e-01 9.71e+02  -0.1 6.98e+01    -  8.28e-03 2.59e-02f  1
  17r 5.9086794e+01 7.47e-01 9.45e+02  -0.1 6.78e+01    -  5.02e-02 2.68e-02f  1
  18r 5.9086446e+01 7.38e-01 8.99e+02  -0.1 7.84e+01    -  4.19e-02 4.79e-02f  1
  19  6.1539534e+01 7.38e-01 4.45e+03  -1.0 5.33e+07    -  5.08e-03 2.95e-04h  1
iter    objective    inf_pr   inf_du lg(mu)  ||d||  lg(rg) alpha_du alpha_pr  ls
  20  6.9575268e+01 7.37e-01 8.09e+04  -1.0 5.43e+07    -  7.51e-03 8.76e-04h  3
  21  7.2388226e+01 7.37e-01 1.03e+05  -1.0 5.20e+07    -  1.15e-02 3.02e-04h  5
  22  7.3768106e+01 7.37e-01 1.21e+05  -1.0 5.13e+07    -  1.55e-02 1.47e-04h  6
  23r 7.3768106e+01 7.37e-01 1.00e+03  -0.1 0.00e+00    -  0.00e+00 3.31e-07R 15
  24r 7.3768080e+01 7.45e-01 9.97e+02  -0.1 1.41e+02    -  6.98e-02 2.90e-03f  1
  25r 7.3767878e+01 7.72e-01 9.76e+02  -0.1 1.06e+02    -  1.50e-02 2.09e-02f  1
  26r 7.3767384e+01 7.76e-01 9.48e+02  -0.1 1.81e+02    -  2.65e-02 4.44e-02f  1
  27r 7.3766064e+01 8.22e-01 9.74e+02  -0.1 1.85e+02    -  4.84e-02 1.19e-01f  1
  28r 7.3763467e+01 9.22e-01 1.12e+03  -0.1 1.80e+02    -  3.24e-02 2.38e-01f  1
  29r 7.3763145e+01 9.30e-01 1.11e+03  -0.1 3.23e+02    -  1.41e-02 3.21e-02f  1
iter    objective    inf_pr   inf_du lg(mu)  ||d||  lg(rg) alpha_du alpha_pr  ls
  30r 7.3762586e+01 9.43e-01 8.66e+02  -0.1 1.59e+02    -  1.69e-01 5.69e-02f  1
  31r 7.3761572e+01 1.04e+00 8.53e+02  -0.1 1.36e+02    -  1.03e-02 1.11e-01f  1
  32r 7.3761572e+01 1.04e+00 7.21e+02  -0.1 6.32e-01   2.0 9.88e-02 2.56e-01f  1
  33r 7.3761572e+01 1.04e+00 7.11e+02  -0.1 1.93e+01   2.4 1.44e-02 9.74e-03f  1
  34r 7.3761572e+01 1.04e+00 4.05e+02  -0.1 9.59e-02   1.9 3.65e-01 6.37e-01f  1
  35r 7.3761572e+01 1.04e+00 3.42e+02  -0.1 3.24e-01   1.5 1.57e-01 9.51e-02f  1
  36r 7.3761572e+01 1.04e+00 1.71e+02  -0.1 4.76e-01   1.0 5.32e-01 3.18e-01f  1
  37r 7.3761572e+01 1.03e+00 9.88e+01  -0.1 1.21e+00   0.5 7.47e-01 6.00e-01f  1
  38r 7.3761572e+01 1.02e+00 8.70e+01  -0.1 1.85e+00   0.0 4.23e-01 6.73e-01f  1
  39r 7.3761572e+01 1.01e+00 5.46e+02  -0.1 1.49e-02   3.2 9.90e-01 5.97e-01f  1
iter    objective    inf_pr   inf_du lg(mu)  ||d||  lg(rg) alpha_du alpha_pr  ls
  40r 7.3761572e+01 1.01e+00 2.22e+01  -0.1 4.44e-02   2.7 9.90e-01 1.00e+00f  1
  41r 7.3761572e+01 1.01e+00 3.12e+01  -0.1 2.34e-02   3.1 9.94e-01 1.00e+00f  1
  42r 7.3761572e+01 1.02e+00 1.22e+02  -0.8 1.40e-01   2.6 4.55e-01 6.92e-01f  1
  43r 7.3761572e+01 1.02e+00 7.54e+01  -0.8 5.99e-02   3.1 6.81e-01 7.10e-01f  1
  44r 7.3761572e+01 1.03e+00 1.19e+02  -0.8 4.00e-01   2.6 7.71e-01 5.77e-01f  1
  45r 7.3761572e+01 1.03e+00 2.98e+02  -0.8 1.10e+01   2.1 3.01e-02 4.11e-02f  1
  46r 7.3761572e+01 1.03e+00 2.98e+02  -0.8 1.88e+00   2.5 2.44e-03 2.40e-03f  1
  47r 7.3761572e+01 1.04e+00 1.34e+02  -0.8 9.06e-02   2.1 7.76e-01 7.77e-01h  1
  48r 7.3761572e+01 1.04e+00 1.03e+02  -0.8 1.13e-01   1.6 3.19e-01 6.16e-01f  1
  49r 7.3761572e+01 1.04e+00 2.44e+01  -0.8 1.21e-01   1.1 7.86e-01 1.00e+00f  1
iter    objective    inf_pr   inf_du lg(mu)  ||d||  lg(rg) alpha_du alpha_pr  ls
  50r 7.3761572e+01 1.04e+00 1.91e+00  -0.8 4.40e-01   0.6 1.00e+00 1.00e+00f  1
  51r 7.3761572e+01 1.04e+00 2.22e+01  -1.5 9.65e-01   0.2 4.14e-01 3.59e-01f  1
  52r 7.3761572e+01 1.05e+00 1.94e+02  -1.5 3.50e+00  -0.3 6.39e-01 1.98e-01f  1
  53r 7.3761572e+01 1.05e+00 9.28e+01  -1.5 1.32e+00   0.1 1.00e+00 6.83e-01f  1
  54r 7.3761572e+01 1.05e+00 6.22e+01  -1.5 4.60e+00  -0.4 3.26e-01 3.28e-01f  1
  55r 7.3761572e+01 1.05e+00 1.42e+02  -1.5 1.16e+01  -0.8 3.67e-01 2.03e-02f  1
  56r 7.3761572e+01 1.06e+00 6.39e+02  -1.5 3.37e+01  -1.3 9.85e-01 1.19e-01f  1
  57r 7.3761570e+01 1.06e+00 3.55e+02  -1.5 9.03e+01  -1.8 8.56e-02 3.87e-01f  1
  58r 7.3761570e+01 1.06e+00 4.28e+02  -1.5 2.20e+02  -2.3 6.17e-02 1.62e-03f  1
  59r 7.3761569e+01 1.06e+00 1.09e+03  -1.5 7.26e+01  -1.9 7.69e-01 3.49e-01f  1
iter    objective    inf_pr   inf_du lg(mu)  ||d||  lg(rg) alpha_du alpha_pr  ls
  60r 7.3761568e+01 1.06e+00 1.09e+03  -1.5 1.79e+02  -2.3 2.95e-02 8.65e-03f  1
  61r 7.3761567e+01 1.06e+00 6.08e+02  -1.5 9.33e+01  -1.9 7.63e-01 2.35e-01f  1
  62r 7.3761567e+01 1.06e+00 5.88e+02  -1.5 1.88e+02  -2.4 1.40e-02 2.05e-02f  1
  63r 7.3761567e+01 1.06e+00 5.44e+02  -1.5 5.88e+01  -2.0 1.00e+00 7.34e-03f  1
  64r 7.3761565e+01 4.44e+00 4.10e+02  -1.5 1.89e+02  -2.4 4.91e-03 8.18e-02f  1
  65r 7.3761565e+01 4.44e+00 1.57e+03  -1.5 2.35e+03  -1.1 9.35e-02 8.35e-05f  1
  66r 7.3761565e+01 4.36e+00 1.54e+03  -1.5 5.96e+01  -1.6 1.59e-02 1.90e-02f  1
  67r 7.3761565e+01 4.33e+00 1.54e+03  -1.5 5.66e+01  -0.2 2.42e-04 7.32e-03f  1
  68r 7.3761565e+01 4.32e+00 1.52e+03  -1.5 3.40e+01   0.2 1.46e-02 5.47e-04f  1
  69r 7.3761565e+01 4.30e+00 1.49e+03  -1.5 7.60e+00   0.6 3.27e-02 5.43e-03f  1
iter    objective    inf_pr   inf_du lg(mu)  ||d||  lg(rg) alpha_du alpha_pr  ls
  70r 7.3761565e+01 3.80e+00 1.39e+03  -1.5 4.39e+01   0.1 2.74e-03 1.17e-01f  1
  71r 7.3761565e+01 3.78e+00 1.36e+03  -1.5 9.04e+00   0.6 3.79e-02 3.79e-03f  1
  72r 7.3761565e+01 3.55e+00 1.16e+03  -1.5 3.92e+00   0.1 2.52e-01 6.11e-02f  1
  73r 7.3761565e+01 2.76e+00 9.84e+02  -1.5 5.32e+00  -0.4 5.71e-03 2.24e-01f  1
  74r 7.3761565e+01 2.44e+00 7.65e+02  -1.5 8.80e+00  -0.9 5.72e-01 1.16e-01f  1
  75r 7.3761564e+01 2.13e+00 7.16e+02  -1.5 1.02e+01  -1.4 1.85e-01 1.26e-01f  1
  76r 7.3761564e+01 2.12e+00 7.69e+02  -1.5 2.58e+01  -1.8 4.80e-01 3.49e-03f  1
  77r 7.3761563e+01 2.00e+00 7.07e+02  -1.5 1.15e+02  -2.3 9.04e-03 5.88e-02f  1
  78r 7.3761563e+01 1.99e+00 7.10e+02  -1.5 2.73e+01  -1.0 2.33e-02 3.19e-03f  1
  79r 7.3756397e+01 1.98e+00 8.37e+02  -1.5 1.96e+04    -  6.07e-02 7.67e-03f  1
iter    objective    inf_pr   inf_du lg(mu)  ||d||  lg(rg) alpha_du alpha_pr  ls
  80r 7.3756397e+01 1.95e+00 1.39e+03  -1.5 4.01e+02  -1.5 3.52e-05 1.33e-02f  1
  81r 7.3756397e+01 1.80e+00 5.83e+03  -1.5 7.06e+00   0.8 1.14e-02 7.92e-02f  1
  82r 7.3756397e+01 1.76e+00 5.72e+03  -1.5 1.35e+02   0.3 1.67e-02 1.94e-02f  1
  83r 7.3756397e+01 1.76e+00 5.70e+03  -1.5 1.76e+00   2.5 5.25e-03 2.42e-03f  1
  84r 7.3756397e+01 1.64e+00 5.34e+03  -1.5 1.76e+00   2.1 2.99e-02 6.43e-02f  1
  85r 7.3756397e+01 1.61e+00 5.24e+03  -1.5 1.64e+00   1.6 2.35e-02 1.84e-02f  1
  86r 7.3756397e+01 1.24e+00 4.04e+03  -1.5 2.05e+00   1.1 9.76e-02 2.29e-01f  1
  87r 7.3756397e+01 1.23e+00 3.99e+03  -1.5 1.05e+01   0.6 1.61e-02 1.40e-02f  1
  88r 7.3756397e+01 1.15e+00 3.74e+03  -1.5 2.82e+00   1.0 1.00e+00 6.18e-02f  1
  89r 7.3756397e+01 1.11e+00 3.60e+03  -1.5 1.37e+01   0.6 4.41e-03 3.60e-02f  1
iter    objective    inf_pr   inf_du lg(mu)  ||d||  lg(rg) alpha_du alpha_pr  ls
  90r 7.3756397e+01 1.09e+00 3.55e+03  -1.5 1.11e+00   2.8 2.81e-02 1.42e-02f  1
  91r 7.3756397e+01 1.05e+00 3.19e+03  -1.5 1.09e+00   2.3 1.58e-01 1.03e-01f  1
  92r 7.3756397e+01 1.05e+00 3.11e+03  -1.5 9.81e-01   1.8 3.65e-01 2.49e-02f  1
  93r 7.3756397e+01 1.05e+00 1.49e+03  -1.5 1.28e+00   1.4 1.00e+00 5.22e-01f  1
  94r 7.3756397e+01 1.05e+00 1.34e+03  -1.5 4.87e+00   0.9 1.78e-01 9.59e-02f  1
  95r 7.3756397e+01 1.05e+00 1.20e+03  -1.5 4.13e-01   2.2 4.90e-03 1.06e-01f  1
  96r 7.3756397e+01 1.05e+00 1.15e+03  -1.5 3.99e-01   2.6 6.86e-02 4.08e-02f  1
  97r 7.3756397e+01 1.05e+00 1.13e+03  -1.5 2.17e+00   2.2 8.35e-05 2.28e-02h  1
  98r 7.3756397e+01 1.05e+00 1.20e+03  -1.5 3.46e-01   3.5 1.11e-01 1.60e-02f  1
  99r 7.3756397e+01 1.05e+00 6.61e+02  -1.5 3.41e-01   3.0 7.19e-02 7.15e-01f  1
iter    objective    inf_pr   inf_du lg(mu)  ||d||  lg(rg) alpha_du alpha_pr  ls
 100r 7.3756397e+01 1.05e+00 2.72e+02  -1.5 9.73e-02   3.4 7.98e-01 1.00e+00f  1
 101r 7.3756397e+01 1.05e+00 4.10e+01  -1.5 3.46e-02   3.0 1.00e+00 9.25e-01f  1
 102r 7.3756397e+01 1.05e+00 3.24e+01  -1.5 1.30e-02   3.4 1.00e+00 1.00e+00f  1
 103r 7.3756397e+01 1.05e+00 1.28e+02  -1.5 5.29e-02   2.9 1.00e+00 7.19e-01f  1
 104r 7.3756397e+01 1.05e+00 3.90e+02  -1.5 1.17e-01   2.4 1.00e+00 8.06e-02f  1
 105r 7.3756397e+01 1.05e+00 4.47e+01  -1.5 3.51e-01   2.0 1.00e+00 8.86e-01f  1
 106r 7.3756397e+01 1.05e+00 8.25e+02  -1.5 1.06e+00   1.5 1.00e+00 1.12e-01f  1
 107r 7.3756397e+01 1.05e+00 1.44e+02  -1.5 3.23e+00   1.0 1.00e+00 8.40e-01f  1
 108r 7.3756397e+01 1.05e+00 1.30e+02  -1.5 1.01e+01   0.5 1.00e+00 9.48e-02f  1
 109r 7.3756397e+01 1.05e+00 2.04e+02  -1.5 2.31e+01   0.1 1.92e-01 2.23e-02f  1
iter    objective    inf_pr   inf_du lg(mu)  ||d||  lg(rg) alpha_du alpha_pr  ls
 110r 7.3756397e+01 1.05e+00 9.08e+02  -1.5 2.80e+00  -0.4 1.00e+00 4.56e-02f  1
 111r 7.3756396e+01 1.05e+00 7.31e+02  -1.5 4.36e+00  -0.9 1.00e+00 2.08e-01f  1
 112r 7.3756394e+01 1.05e+00 2.67e+01  -1.5 8.23e+00  -1.4 1.00e+00 1.00e+00f  1
 113r 7.3756394e+01 1.05e+00 3.35e+02  -1.5 2.84e+01  -1.9 1.00e+00 2.81e-02f  1
 114r 7.3751372e+01 1.05e+00 1.85e+03  -1.5 3.85e+03    -  3.64e-01 2.36e-02f  1
 115r 7.3543969e+01 1.04e+00 3.32e+03  -1.5 3.78e+03    -  5.66e-03 1.00e+00f  1
 116r 7.3543969e+01 1.04e+00 3.29e+03  -1.5 7.52e+01  -2.3 6.72e-02 8.87e-03f  1
 117r 7.3541958e+01 1.04e+00 3.11e+03  -1.5 3.26e+03    -  5.67e-01 5.27e-02f  1
 118r 7.3505633e+01 1.04e+00 1.45e+03  -1.5 3.12e+03    -  1.28e-02 1.00e+00f  1
 119r 7.3505635e+01 4.47e+00 3.33e+01  -1.5 1.00e+01  -1.9 4.03e-01 1.00e+00f  1
iter    objective    inf_pr   inf_du lg(mu)  ||d||  lg(rg) alpha_du alpha_pr  ls
 120r 7.3505635e+01 4.41e+00 1.06e+03  -1.5 1.83e+01   0.3 7.77e-02 1.34e-02f  1
 121r 7.3505635e+01 4.19e+00 7.82e+02  -1.5 8.33e+01  -0.1 9.55e-03 5.03e-02f  1
 122r 7.3505635e+01 3.95e+00 8.08e+02  -1.5 2.24e+01   0.3 2.33e-02 5.86e-02f  1
 123r 7.3505635e+01 3.89e+00 9.23e+02  -1.5 1.15e+02  -0.2 7.45e-02 1.46e-02f  1
 124r 7.3505635e+01 3.88e+00 9.38e+02  -1.5 2.17e+01   0.2 4.90e-02 2.11e-03f  1
 125r 7.3505635e+01 3.77e+00 9.08e+02  -1.5 7.30e+00   0.7 2.10e-02 2.91e-02f  1
 126r 7.3505635e+01 3.70e+00 8.93e+02  -1.5 2.53e+01   0.2 1.59e-02 1.71e-02f  1
 127r 7.3505635e+01 3.69e+00 1.54e+03  -1.5 3.70e+00   2.4 9.13e-02 3.13e-03f  1
 128r 7.3505635e+01 2.75e+00 6.99e+02  -1.5 3.69e+00   1.9 2.40e-02 2.56e-01f  1
 129r 7.3505635e+01 2.31e+00 1.61e+03  -1.5 2.75e+00   2.4 1.60e-02 1.57e-01f  1
iter    objective    inf_pr   inf_du lg(mu)  ||d||  lg(rg) alpha_du alpha_pr  ls
 130r 7.3505635e+01 2.23e+00 1.55e+03  -1.5 2.31e+00   2.8 2.90e-02 3.63e-02f  1
 131r 7.3505635e+01 2.21e+00 1.53e+03  -1.5 2.23e+00   3.2 1.06e-01 8.27e-03f  1
 132r 7.3505635e+01 2.20e+00 1.52e+03  -1.5 2.19e+00   2.7 3.52e-03 7.18e-03h  1
 133r 7.3505635e+01 2.18e+00 1.50e+03  -1.5 1.89e+00   3.2 1.90e-04 1.82e-02h  1
 134r 7.3505635e+01 2.12e+00 1.41e+03  -1.5 1.85e+00   2.7 1.00e-01 5.72e-02h  1
 135r 7.3505635e+01 1.76e+00 3.45e+03  -1.5 1.32e+00   3.1 4.84e-04 4.06e-01h  1
 136r 7.3505635e+01 1.00e+00 1.31e+03  -1.5 1.16e+00   2.6 1.33e-01 6.54e-01h  1
 137r 7.3505635e+01 1.00e+00 1.30e+03  -1.5 2.42e+00   2.2 1.02e-02 6.83e-03f  1
 138r 7.3505635e+01 1.00e+00 1.29e+03  -1.5 7.00e+00   1.7 1.24e-01 1.77e-02f  1
 139r 7.3505635e+01 1.00e+00 1.24e+03  -1.5 4.57e-01   3.0 1.00e+00 1.63e-02f  1
iter    objective    inf_pr   inf_du lg(mu)  ||d||  lg(rg) alpha_du alpha_pr  ls
 140r 7.3505635e+01 9.97e-01 4.55e+02  -1.5 1.10e+00   2.5 2.62e-01 6.47e-01f  1
 141r 7.3505635e+01 9.97e-01 4.66e+02  -1.5 4.03e-01   3.0 9.10e-01 1.72e-02f  1
 142r 7.3505635e+01 9.95e-01 4.06e+02  -1.5 1.40e-01   2.5 1.17e-01 5.12e-02f  1
 143r 7.3505635e+01 9.88e-01 1.05e+02  -1.5 1.32e-01   2.9 1.00e+00 1.00e+00f  1
 144r 7.3505635e+01 9.84e-01 9.81e+01  -1.5 1.40e-01   2.4 1.39e-01 6.38e-02f  1
 145r 7.3505635e+01 9.83e-01 3.42e+02  -1.5 5.01e-02   2.9 4.45e-01 1.52e-01f  1
 146r 7.3505635e+01 9.82e-01 3.45e+02  -1.5 1.67e-01   2.4 2.06e-01 7.59e-02f  1
 147r 7.3505635e+01 9.71e-01 1.80e+02  -1.5 5.62e-02   2.8 1.90e-01 1.00e+00f  1
 148r 7.3505635e+01 9.66e-01 3.53e+01  -1.5 2.10e-02   3.2 9.49e-01 1.00e+00f  1
 149r 7.3505635e+01 9.55e-01 3.51e+01  -1.5 6.23e-02   2.7 6.60e-01 4.56e-01f  1
iter    objective    inf_pr   inf_du lg(mu)  ||d||  lg(rg) alpha_du alpha_pr  ls
 150r 7.3505635e+01 9.55e-01 1.30e+03  -1.5 2.31e-02   3.2 7.50e-01 3.82e-02f  1
 151r 7.3505635e+01 9.46e-01 1.55e+02  -1.5 6.86e-02   2.7 1.84e-02 5.65e-01f  1
 152r 7.3505635e+01 9.41e-01 6.76e+01  -1.5 2.57e-02   3.1 1.00e+00 5.24e-01f  1
 153r 7.3505635e+01 9.41e-01 8.57e+02  -1.5 7.73e-02   2.6 4.55e-01 1.77e-01f  1
 154r 7.3505635e+01 9.34e-01 3.41e+01  -1.5 2.90e-02   3.1 1.00e+00 1.00e+00f  1
 155r 7.3505635e+01 9.09e-01 1.06e+03  -1.5 8.71e-02   2.6 2.27e-01 1.00e+00f  1
 156r 7.3505635e+01 8.93e-01 3.42e+01  -1.5 3.27e-02   3.0 1.00e+00 1.00e+00f  1
 157r 7.3505635e+01 8.87e-01 3.42e+01  -1.5 3.36e-01   2.5 7.27e-02 4.78e-02f  1
 158r 7.3505635e+01 8.87e-01 1.91e+03  -1.5 3.68e-02   3.0 4.69e-01 1.15e-02f  1
 159r 7.3505635e+01 8.82e-01 7.71e+02  -1.5 4.21e-01   2.5 5.29e-03 2.07e-01f  1
iter    objective    inf_pr   inf_du lg(mu)  ||d||  lg(rg) alpha_du alpha_pr  ls
 160r 7.3505635e+01 8.81e-01 7.23e+02  -1.5 4.65e-02   2.9 1.00e+00 2.84e-02f  1
 161r 7.3505635e+01 8.41e-01 3.65e+02  -1.5 3.04e-01   2.4 2.47e-02 1.96e-01f  1
 162r 7.3505635e+01 8.40e-01 3.62e+02  -1.5 6.13e-02   2.9 3.83e-01 9.69e-03f  1
 163r 7.3505635e+01 8.40e-01 1.59e+03  -1.5 1.40e-01   2.4 2.44e-01 5.37e-02f  1
 164r 7.3505635e+01 8.34e-01 5.97e+02  -1.5 4.24e-01   1.9 2.05e-03 1.07e-01f  1
 165r 7.3505635e+01 8.14e-01 5.88e+02  -1.5 2.31e+00   2.3 1.26e-03 1.37e-02f  1
 166r 7.3505635e+01 8.02e-01 4.85e+02  -1.5 1.01e-01   2.8 1.32e-01 1.73e-01f  1
 167r 7.3505635e+01 7.95e-01 3.31e+02  -1.5 2.88e-02   3.2 6.32e-01 3.18e-01f  1
 168r 7.3505635e+01 7.92e-01 3.19e+02  -1.5 1.33e-01   2.7 8.04e-02 3.85e-02f  1
 169r 7.3505635e+01 7.85e-01 2.29e+02  -1.5 3.75e-02   3.1 5.57e-01 2.86e-01f  1
iter    objective    inf_pr   inf_du lg(mu)  ||d||  lg(rg) alpha_du alpha_pr  ls
 170r 7.3505635e+01 7.59e-01 1.72e+02  -1.5 2.12e-01   2.7 2.12e-02 2.40e-01f  1
 171r 7.3505635e+01 7.55e-01 1.54e+02  -1.5 6.38e-02   3.1 5.57e-01 1.14e-01f  1
 172r 7.3505635e+01 7.55e-01 2.73e+02  -1.5 5.44e-01   2.6 5.34e-02 1.77e-02f  1
 173r 7.3505635e+01 7.54e-01 1.36e+02  -1.5 8.15e-02   3.0 4.76e-02 1.04e-01f  1
 174r 7.3505635e+01 7.46e-01 1.21e+02  -1.5 1.10e+00   2.6 6.02e-03 1.02e-01f  1
 175r 7.3505635e+01 7.46e-01 9.97e+02  -1.5 1.43e-01   3.0 6.44e-01 6.99e-03f  1
 176r 7.3505635e+01 7.46e-01 3.52e+02  -1.5 1.81e+00   2.5 4.77e-03 1.15e-01f  1
 177r 7.3505635e+01 7.46e-01 4.89e+02  -1.5 1.55e-01   2.9 6.47e-02 1.34e-02f  1
 178r 7.3505635e+01 7.46e-01 4.71e+02  -1.5 2.94e+00   2.5 2.06e-02 4.51e-02f  1
 179r 7.3505635e+01 7.46e-01 1.26e+03  -1.5 1.38e-01   2.9 3.72e-01 3.73e-02f  1
iter    objective    inf_pr   inf_du lg(mu)  ||d||  lg(rg) alpha_du alpha_pr  ls
 180r 7.3505635e+01 7.46e-01 1.19e+03  -1.5 1.20e+00   2.4 6.58e-03 2.46e-02f  1
 181r 7.3505635e+01 7.46e-01 1.17e+03  -1.5 5.79e-02   2.8 7.48e-02 1.29e-02f  1
 182r 7.3505635e+01 7.46e-01 9.71e+02  -1.5 1.37e+00   2.4 2.88e-03 4.47e-02f  1
 183r 7.3505635e+01 7.46e-01 9.51e+02  -1.5 1.44e-01   2.8 1.49e-01 2.05e-02f  1
 184r 7.3505635e+01 7.46e-01 7.32e+02  -1.5 3.27e-02   3.2 3.77e-01 2.30e-01f  1
 185r 7.3505635e+01 7.46e-01 7.34e+02  -1.5 2.01e-01   2.7 1.46e-01 7.86e-01f  1
 186r 7.3505635e+01 7.46e-01 3.07e+02  -1.5 8.74e-02   3.2 5.96e-01 1.76e-01f  1
 187r 7.3505635e+01 7.46e-01 3.24e+02  -1.5 5.46e-01   2.7 1.44e-01 6.26e-01f  1
 188r 7.3505635e+01 7.46e-01 1.84e+02  -1.5 1.20e-01   3.1 3.88e-01 3.48e-01f  1
 189r 7.3505635e+01 7.46e-01 3.41e+02  -1.5 5.99e-01   2.6 3.58e-03 1.18e-01f  1
iter    objective    inf_pr   inf_du lg(mu)  ||d||  lg(rg) alpha_du alpha_pr  ls
 190r 7.3505635e+01 7.46e-01 3.44e+02  -1.5 3.48e-01   3.1 1.00e+00 1.26e-02f  1
 191r 7.3505635e+01 7.46e-01 2.68e+02  -1.5 8.90e-02   3.5 3.37e-01 2.42e-01f  1
 192r 7.3505635e+01 7.46e-01 2.63e+02  -1.5 5.53e-02   3.0 1.00e+00 4.33e-02f  1
 193r 7.3505635e+01 7.46e-01 2.17e+02  -1.5 1.14e+00   2.5 7.89e-02 1.72e-01f  1
 194r 7.3505635e+01 7.46e-01 3.43e+02  -1.5 1.52e-01   3.0 1.00e+00 2.37e-01f  1
 195r 7.3505635e+01 7.46e-01 4.25e+02  -1.5 1.46e+00   2.5 1.51e-01 1.02e-01f  1
 196r 7.3505635e+01 7.46e-01 3.99e+02  -1.5 1.51e-01   2.9 1.00e+00 9.87e-03f  1
 197r 7.3505635e+01 7.46e-01 2.55e+02  -1.5 1.31e-01   2.4 2.14e-01 5.51e-02f  1
 198r 7.3505635e+01 7.46e-01 2.16e+02  -1.5 4.90e-02   2.8 1.00e+00 4.21e-01f  1
 199r 7.3505635e+01 7.46e-01 2.19e+02  -1.5 1.47e-01   2.4 3.60e-01 2.13e-01f  1
iter    objective    inf_pr   inf_du lg(mu)  ||d||  lg(rg) alpha_du alpha_pr  ls
 200r 7.3505635e+01 7.46e-01 2.71e+02  -1.5 4.45e-01   1.9 1.00e+00 3.91e-01f  1
 201r 7.3505635e+01 7.46e-01 2.94e+02  -1.5 1.37e+00   1.4 5.30e-01 1.08e-01f  1
 202r 7.3505635e+01 7.46e-01 1.13e+02  -1.5 6.25e-02   2.7 1.00e+00 8.27e-01f  1
 203r 7.3505635e+01 7.46e-01 3.51e+01  -1.5 1.88e-01   2.3 1.00e+00 1.00e+00f  1
 204r 7.3505635e+01 7.46e-01 3.53e+01  -1.5 5.71e-01   1.8 9.84e-01 5.00e-01f  1
 205r 7.3505635e+01 7.46e-01 4.36e+01  -1.5 1.67e+00   1.3 1.00e+00 4.90e-02f  1
 206r 7.3505635e+01 7.46e-01 8.68e+02  -1.5 2.32e+00   0.8 1.00e+00 1.29e-02f  1
 207r 7.3505635e+01 7.46e-01 5.17e+02  -1.5 1.72e+00   0.4 1.00e+00 4.74e-01f  1
 208r 7.3505635e+01 7.46e-01 4.54e+02  -1.5 6.25e+00  -0.1 1.00e+00 2.48e-01f  1
 209r 7.3505635e+01 7.46e-01 3.90e+02  -1.5 9.09e+00  -0.6 5.08e-01 2.12e-02f  1
iter    objective    inf_pr   inf_du lg(mu)  ||d||  lg(rg) alpha_du alpha_pr  ls
 210r 7.3505635e+01 7.46e-01 1.14e+03  -1.5 1.77e+01  -1.1 1.00e+00 8.20e-02f  1
 211r 7.3505635e+01 7.47e-01 9.79e+02  -1.5 4.82e+01  -1.5 3.21e-01 6.34e-02f  1
 212r 7.3505636e+01 7.49e-01 7.46e+02  -1.5 1.58e+02  -2.0 5.92e-01 3.98e-02f  1
 213r 7.3505636e+01 7.50e-01 7.35e+02  -1.5 2.38e+02  -2.5 1.33e-02 1.76e-02f  1
 214r 7.3505636e+01 7.49e-01 7.19e+02  -1.5 1.62e+03  -3.0 5.44e-03 1.38e-03f  1
 215r 7.3505837e+01 7.49e-01 8.67e+02  -1.5 8.83e+03    -  8.51e-02 1.20e-03f  1
 216r 7.3511111e+01 7.49e-01 8.13e+02  -1.5 8.22e+03    -  1.50e-03 2.51e-02f  1
 217r 7.3515057e+01 7.49e-01 8.00e+02  -1.5 1.00e+04    -  1.93e-02 1.32e-02f  1
 218r 7.3516859e+01 7.49e-01 7.97e+02  -1.5 9.90e+03    -  2.02e-03 6.10e-03f  1
 219r 7.3516859e+01 7.49e-01 7.97e+02  -1.5 4.04e+00   1.1 4.60e-04 7.76e-03f  1
iter    objective    inf_pr   inf_du lg(mu)  ||d||  lg(rg) alpha_du alpha_pr  ls
 220r 7.3516859e+01 7.49e-01 7.95e+02  -1.5 6.24e-01   2.4 2.07e-03 1.87e-02f  1
 221r 7.3516859e+01 7.49e-01 7.00e+02  -1.5 5.55e-01   2.8 9.77e-01 6.73e-02f  1
 222r 7.3516859e+01 7.49e-01 5.31e+02  -1.5 5.17e-01   2.3 4.01e-01 4.85e-01f  1
 223r 7.3516859e+01 7.49e-01 6.02e+02  -1.5 2.66e-01   1.9 1.00e+00 5.18e-01f  1
 224r 7.3516859e+01 7.49e-01 1.90e+02  -1.5 1.28e-01   1.4 1.00e+00 7.03e-01f  1
 225r 7.3516859e+01 7.49e-01 2.08e+02  -1.5 1.87e-01   0.9 1.00e+00 6.92e-01f  1
 226r 7.3516897e+01 7.49e-01 2.19e+02  -1.5 4.93e+03    -  3.14e-02 2.61e-03f  1
 227r 7.3516897e+01 7.49e-01 1.20e+03  -1.5 1.29e+01   0.4 6.20e-01 2.47e-01f  1
 228r 7.3516897e+01 7.49e-01 9.11e+02  -1.5 3.23e+01  -0.0 1.08e-01 3.13e-01f  1
 229r 7.3516897e+01 7.49e-01 9.22e+02  -1.5 1.05e+01   0.4 2.76e-01 7.88e-03f  1
iter    objective    inf_pr   inf_du lg(mu)  ||d||  lg(rg) alpha_du alpha_pr  ls
 230r 7.3516966e+01 7.49e-01 9.62e+02  -1.5 3.31e+03    -  1.10e-02 9.55e-04f  1
 231r 7.3516966e+01 7.49e-01 7.56e+02  -1.5 1.70e+00  -0.1 3.08e-01 2.07e-01f  1
 232r 7.3516966e+01 7.49e-01 5.57e+02  -1.5 5.04e+00  -0.6 1.37e-01 2.41e-01f  1
 233r 7.3516967e+01 7.48e-01 3.51e+02  -1.5 1.46e+01  -1.1 1.27e-01 3.76e-01f  1
 234r 7.3516856e+01 7.48e-01 8.28e+02  -1.5 2.50e+04    -  2.83e-02 2.17e-04f  1
 235r 7.3514433e+01 7.48e-01 8.69e+02  -1.5 8.70e+03    -  2.19e-02 1.72e-02f  1
 236r 7.3511779e+01 7.48e-01 1.12e+03  -1.5 8.79e+03    -  4.21e-02 1.90e-02f  1
 237r 7.3510896e+01 7.48e-01 1.45e+03  -1.5 9.69e+03    -  3.33e-02 5.61e-03f  1
 238r 7.3494816e+01 1.71e+00 3.38e+02  -1.5 1.41e+04    -  2.47e-04 6.22e-02f  1
 239r 7.3494816e+01 1.71e+00 3.38e+02  -1.5 4.05e+02  -1.5 3.81e-03 6.86e-04f  1
iter    objective    inf_pr   inf_du lg(mu)  ||d||  lg(rg) alpha_du alpha_pr  ls
 240r 7.3494816e+01 1.56e+00 3.09e+02  -1.5 3.08e+01  -0.2 4.04e-03 8.45e-02f  1
 241r 7.3494816e+01 1.45e+00 3.25e+02  -1.5 9.53e+00   0.2 3.44e-02 7.06e-02f  1
 242r 7.3494816e+01 1.36e+00 5.44e+02  -1.5 9.21e+01  -0.3 4.84e-03 6.80e-02f  1
 243r 7.3494816e+01 1.10e+00 4.33e+02  -1.5 1.83e+01   0.2 1.93e-01 1.90e-01f  1
 244r 7.3494816e+01 1.09e+00 4.33e+02  -1.5 5.56e+02  -0.3 2.99e-03 3.92e-03f  1
 245r 7.3494816e+01 1.09e+00 4.35e+02  -1.5 1.44e+01   0.1 3.62e-02 1.49e-03f  1
 246r 7.3494816e+01 1.06e+00 4.56e+02  -1.5 8.76e+01  -0.4 1.00e-03 2.77e-02f  1
 247r 7.3494816e+01 1.03e+00 4.80e+02  -1.5 1.74e+01   0.1 1.17e-01 3.02e-02f  1
 248r 7.3494816e+01 1.01e+00 4.72e+02  -1.5 1.24e+02  -0.4 1.89e-02 1.86e-02f  1
 249r 7.3494816e+01 1.01e+00 1.61e+03  -1.5 1.75e+01   0.0 2.59e-01 2.58e-03f  1
iter    objective    inf_pr   inf_du lg(mu)  ||d||  lg(rg) alpha_du alpha_pr  ls
 250r 7.3494816e+01 9.36e-01 1.42e+03  -1.5 1.88e+02  -0.5 9.30e-03 7.08e-02f  1
 251r 7.3494816e+01 8.86e-01 1.37e+03  -1.5 9.36e-01   2.7 2.21e-01 5.29e-02f  1
 252r 7.3494816e+01 8.84e-01 1.38e+03  -1.5 8.86e-01   2.2 1.95e-02 2.55e-03f  1
 253r 7.3494816e+01 8.72e-01 1.75e+03  -1.5 8.84e-01   2.6 2.01e-01 1.35e-02f  1
 254r 7.3494816e+01 7.61e-01 1.13e+03  -1.5 2.18e+00   2.1 2.77e-03 1.28e-01f  1
 255r 7.3494816e+01 7.47e-01 1.06e+02  -1.5 7.61e-01   1.7 7.80e-01 1.00e+00f  1
 256r 7.3494816e+01 7.47e-01 6.47e+02  -1.5 1.30e+00   1.2 1.00e+00 1.93e-01f  1
 257r 7.3494816e+01 7.47e-01 4.81e+02  -1.5 3.89e+00   0.7 2.22e-01 2.53e-01f  1
 258r 7.3494816e+01 7.47e-01 4.72e+02  -1.5 1.60e+01   0.2 3.00e-01 4.47e-02f  1
 259r 7.3494816e+01 7.47e-01 4.17e+02  -1.5 5.04e+00   0.7 1.46e-03 1.10e-01f  1
iter    objective    inf_pr   inf_du lg(mu)  ||d||  lg(rg) alpha_du alpha_pr  ls
 260r 7.3494816e+01 7.47e-01 3.43e+02  -1.5 2.04e+01   0.2 2.54e-02 1.66e-01f  1
 261r 7.3494816e+01 7.47e-01 6.15e+02  -1.5 9.73e-01   2.4 9.97e-01 8.87e-03h  1
 262r 7.3494816e+01 7.47e-01 4.51e+02  -1.5 2.49e-01   1.9 2.83e-01 2.69e-01f  1
 263r 7.3494816e+01 7.47e-01 2.37e+02  -1.5 7.59e-01   1.5 1.00e+00 5.46e-01f  1
 264r 7.3494816e+01 7.47e-01 3.29e+02  -1.5 2.42e+00   1.0 1.00e+00 6.00e-02f  1
 265r 7.3494816e+01 7.47e-01 1.57e+02  -1.5 8.52e+00   0.5 7.34e-01 6.46e-01f  1
 266r 7.3494816e+01 7.47e-01 7.93e+02  -1.5 3.50e+00   0.9 8.36e-03 2.18e-01f  1
 267r 7.3494816e+01 7.47e-01 8.69e+02  -1.5 8.99e+00   0.5 1.48e-03 2.50e-02f  1
 268r 7.3494816e+01 7.47e-01 2.09e+02  -1.5 2.59e-01   2.7 5.45e-01 3.49e-02f  1
 269r 7.3494816e+01 7.47e-01 1.15e+02  -1.5 1.26e-01   2.2 5.69e-01 4.68e-01f  1
iter    objective    inf_pr   inf_du lg(mu)  ||d||  lg(rg) alpha_du alpha_pr  ls
 270r 7.3494117e+01 7.47e-01 1.15e+02  -1.5 5.07e+06    -  8.65e-06 8.02e-06f  1
 271r 7.3493771e+01 7.47e-01 6.53e+02  -1.5 1.30e+04    -  3.98e-02 2.88e-03f  1
 272r 7.3493771e+01 7.47e-01 7.80e+02  -1.5 2.56e-01   1.7 3.71e-01 2.79e-01f  1
 273r 7.3476169e+01 7.47e-01 1.32e+03  -1.5 1.65e+04    -  6.10e-04 1.00e-01f  1
 274r 7.3476169e+01 7.46e-01 5.93e+02  -1.5 8.78e-01   1.3 1.64e-01 7.92e-01f  1
 275r 7.3476169e+01 7.46e-01 1.67e+02  -1.5 2.80e+00   0.8 6.55e-01 1.00e+00f  1
 276r 7.3476169e+01 7.46e-01 1.44e+02  -1.5 1.07e+01   0.3 2.93e-01 8.21e-01f  1
 277r 7.3476169e+01 7.46e-01 1.03e+02  -1.5 6.66e+01  -0.2 1.08e-01 1.13e-03f  1
 278r 7.3476169e+01 7.46e-01 6.06e+02  -1.5 7.92e+00   0.3 1.00e+00 2.88e-03f  1
 279r 7.3476169e+01 7.46e-01 2.75e+02  -1.5 3.62e+01  -0.2 2.06e-01 4.47e-01f  1
iter    objective    inf_pr   inf_du lg(mu)  ||d||  lg(rg) alpha_du alpha_pr  ls
 280r 7.3476169e+01 7.46e-01 3.06e+02  -1.5 1.18e+01   0.2 1.80e-01 9.50e-03f  1
 281r 7.3476189e+01 7.46e-01 1.94e+03  -1.5 3.54e+03    -  3.70e-01 5.42e-04f  1
 282r 7.3492795e+01 7.46e-01 1.85e+02  -1.5 3.54e+03    -  5.85e-03 3.88e-01f  1
 283r 7.3492795e+01 7.46e-01 4.45e+02  -1.5 1.90e+00  -0.3 3.36e-01 2.12e-01f  1
 284r 7.3492795e+01 1.85e+00 7.51e+02  -1.5 8.90e+00  -0.7 4.59e-03 3.91e-01f  1
 285r 7.3492795e+01 1.83e+00 1.26e+03  -1.5 3.86e+01  -0.3 2.95e-01 9.07e-03f  1
 286r 7.3492795e+01 9.09e-01 3.38e+03  -1.5 9.04e+00   0.1 4.82e-03 5.03e-01f  1
 287r 7.3492795e+01 8.38e-01 3.38e+03  -1.5 1.44e+02  -0.4 1.21e-02 7.80e-02f  1
 288r 7.3492795e+01 7.45e-01 2.38e+03  -1.5 2.16e+01   0.1 3.65e-01 5.70e-01f  1
 289r 7.3492795e+01 7.45e-01 2.43e+03  -1.5 7.84e+00   0.5 5.15e-01 1.04e-02f  1
iter    objective    inf_pr   inf_du lg(mu)  ||d||  lg(rg) alpha_du alpha_pr  ls
 290r 7.3492795e+01 7.45e-01 2.33e+03  -1.5 1.83e+01   0.0 1.19e-01 2.72e-03f  1
 291r 7.3492795e+01 7.45e-01 2.21e+03  -1.5 2.00e+02  -0.5 3.30e-02 4.85e-02f  1
 292r 7.3492795e+01 7.45e-01 2.21e+03  -1.5 2.23e+01  -0.0 3.88e-03 2.81e-03f  1
 293r 7.3492775e+01 7.45e-01 2.20e+03  -1.5 9.05e+03    -  2.19e-03 1.26e-04f  1
 294r 7.3492775e+01 7.45e-01 1.59e+03  -1.5 6.11e+00  -0.5 1.00e+00 3.01e-01h  1
 295r 7.3487013e+01 1.77e+00 1.68e+03  -1.5 4.45e+03    -  2.16e-02 9.40e-02f  1
 296r 7.3487013e+01 1.65e+00 1.57e+03  -1.5 6.54e+01  -0.1 1.29e-01 6.74e-02f  1
 297r 7.3487013e+01 1.52e+00 1.44e+03  -1.5 1.88e+01   0.3 1.66e-02 7.92e-02f  1
 298r 7.3487013e+01 1.46e+00 1.38e+03  -1.5 8.72e+01  -0.2 1.08e-01 4.03e-02f  1
 299r 7.3487013e+01 1.46e+00 1.38e+03  -1.5 1.90e+01   0.3 5.34e-02 2.59e-03f  1
iter    objective    inf_pr   inf_du lg(mu)  ||d||  lg(rg) alpha_du alpha_pr  ls
 300r 7.3487013e+01 1.43e+00 1.35e+03  -1.5 8.42e+01  -0.2 7.53e-03 1.93e-02f  1
 301r 7.3487013e+01 1.38e+00 1.31e+03  -1.5 2.18e+01   0.2 1.40e-01 3.26e-02f  1
 302r 7.3487013e+01 1.37e+00 1.30e+03  -1.5 6.66e+01  -0.3 4.06e-02 5.00e-03f  1
 303r 7.3487013e+01 1.33e+00 1.26e+03  -1.5 1.86e+01   0.2 6.69e-02 3.48e-02f  1
 304r 7.3487013e+01 1.27e+00 1.21e+03  -1.5 8.04e+01  -0.3 5.76e-03 4.03e-02f  1
 305r 7.3487013e+01 1.27e+00 1.79e+03  -1.5 1.49e+01   0.1 4.49e-01 3.54e-03f  1
 306r 7.3487013e+01 1.15e+00 1.48e+03  -1.5 2.10e+01  -0.4 1.11e-02 9.47e-02f  1
 307r 7.3487013e+01 8.44e-01 1.07e+03  -1.5 6.55e+00   0.1 4.23e-01 2.65e-01f  1
 308r 7.3487013e+01 1.09e+00 4.49e+02  -1.5 3.24e+01  -0.4 1.23e-01 1.00e+00f  1
 309r 7.3487013e+01 9.52e-01 3.81e+02  -1.5 1.69e+01   0.0 1.51e-01 1.30e-01f  1
iter    objective    inf_pr   inf_du lg(mu)  ||d||  lg(rg) alpha_du alpha_pr  ls
 310r 7.3487013e+01 9.49e-01 9.38e+02  -1.5 1.23e+02  -0.5 1.65e-01 2.66e-03f  1
 311r 7.3487013e+01 8.51e-01 5.03e+02  -1.5 2.12e+01  -0.0 1.22e-02 1.04e-01f  1
 312r 7.3487013e+01 8.27e-01 1.81e+03  -1.5 8.51e-01   3.1 1.89e-01 2.75e-02f  1
 313r 7.3487013e+01 7.43e-01 2.98e+02  -1.5 8.27e-01   2.6 9.91e-01 8.40e-01f  1
 314r 7.3486907e+01 7.43e-01 2.98e+02  -1.5 6.24e+03    -  3.63e-02 7.72e-04f  1
 315r 7.3486907e+01 7.43e-01 6.23e+02  -1.5 1.33e-01   2.1 7.09e-01 3.58e-01f  1
 316r 7.3475046e+01 7.43e-01 3.65e+02  -1.5 9.37e+03    -  9.77e-04 8.30e-02f  1
 317r 7.3475046e+01 7.43e-01 1.29e+03  -1.5 4.50e-01   1.7 8.05e-01 9.82e-02f  1
 318r 7.3475046e+01 7.43e-01 1.94e+01  -1.5 8.09e-01   1.2 1.00e+00 1.00e+00f  1
 319r 7.3475046e+01 7.43e-01 3.60e+02  -1.5 2.63e+00   0.7 4.21e-01 9.73e-01f  1
iter    objective    inf_pr   inf_du lg(mu)  ||d||  lg(rg) alpha_du alpha_pr  ls
 320r 7.3475046e+01 7.43e-01 1.07e+02  -1.5 1.07e+01   0.2 9.37e-01 1.00e+00f  1
 321r 7.3475046e+01 7.43e-01 2.31e+02  -1.5 8.35e+02  -0.2 1.37e-02 1.27e-02f  1
 322r 7.3475046e+01 7.43e-01 2.30e+02  -1.5 2.65e+01   0.2 3.68e-03 2.72e-03f  1
 323r 7.3475046e+01 7.43e-01 2.30e+02  -1.5 3.42e+01  -0.3 6.91e-01 3.33e-04f  1
 324r 7.3447052e+01 7.43e-01 1.62e+02  -1.5 3.76e+03    -  2.03e-01 3.85e-01f  1
 325r 7.3447052e+01 7.42e-01 3.01e+02  -1.5 1.52e+00  -0.8 1.00e+00 4.48e-01f  1
 326r 7.3447052e+01 7.42e-01 2.84e+02  -1.5 1.55e+01  -1.2 5.03e-02 5.71e-02f  1
 327r 7.3403333e+01 7.42e-01 1.40e+01  -1.5 2.46e+03    -  1.00e+00 1.00e+00f  1
 328r 7.3403095e+01 7.42e-01 3.20e-03  -1.5 3.45e+01    -  1.00e+00 1.00e+00f  1
 329r 7.3402911e+01 7.42e-01 6.89e-01  -3.4 1.10e+01    -  1.00e+00 9.77e-01f  1
iter    objective    inf_pr   inf_du lg(mu)  ||d||  lg(rg) alpha_du alpha_pr  ls
 330r 7.3193013e+01 7.42e-01 7.42e+02  -3.4 1.44e+05    -  1.44e-01 6.58e-02f  1
 331r 7.3193012e+01 7.42e-01 4.72e+02  -3.4 2.14e+00  -1.7 2.01e-04 8.47e-02f  1
 332r 7.3193012e+01 7.42e-01 6.63e+02  -3.4 8.99e-01  -2.2 3.50e-01 4.81e-03f  1
 333r 7.3192954e+01 7.42e-01 8.67e+02  -3.4 2.78e+00  -2.7 1.76e-04 6.20e-01f  1
 334r 7.3192953e+01 7.42e-01 8.09e+02  -3.4 3.49e+01  -0.4 1.00e+00 1.00e+00f  1
 335r 7.3192953e+01 7.42e-01 3.16e+02  -3.4 2.03e+01  -0.0 7.12e-01 7.71e-01f  1
 336r 7.3192953e+01 7.42e-01 3.16e+02  -3.4 8.88e+00   0.4 1.23e-01 3.87e-04f  1
 337r 7.3192953e+01 7.42e-01 8.96e+02  -3.4 6.27e-01  -0.1 1.00e+00 1.85e-05h  1
 338r 7.3192953e+01 7.42e-01 2.41e+02  -3.4 5.97e+00  -0.5 1.00e+00 1.00e+00f  1
 339r 7.3192951e+01 7.42e-01 1.78e-01  -3.4 6.05e-02  -1.0 1.00e+00 1.00e+00h  1
iter    objective    inf_pr   inf_du lg(mu)  ||d||  lg(rg) alpha_du alpha_pr  ls
 340r 7.3192945e+01 7.42e-01 5.72e-03  -3.4 1.80e-01  -1.5 1.00e+00 1.00e+00f  1
 341r 7.3192928e+01 7.42e-01 1.19e-02  -5.2 5.40e-01  -2.0 1.00e+00 1.00e+00f  1
 342r 7.3192867e+01 7.42e-01 7.72e-03  -5.2 2.19e+00  -2.5 1.00e+00 1.00e+00f  1
 343r 7.3192685e+01 7.42e-01 7.73e-03  -5.2 6.56e+00  -2.9 1.00e+00 1.00e+00f  1
 344r 7.3192140e+01 7.42e-01 7.73e-03  -5.2 1.97e+01  -3.4 1.00e+00 1.00e+00f  1
 345r 7.3190503e+01 7.42e-01 7.74e-03  -5.2 5.92e+01  -3.9 1.00e+00 1.00e+00f  1
 346r 7.3185596e+01 7.42e-01 7.76e-03  -5.2 1.78e+02  -4.4 1.00e+00 1.00e+00f  1
 347r 7.3170902e+01 7.42e-01 7.83e-03  -5.2 5.39e+02  -4.8 1.00e+00 1.00e+00f  1
 348r 7.3127058e+01 7.42e-01 8.07e-03  -5.2 1.67e+03  -5.3 1.00e+00 1.00e+00f  1
 349r 7.2997871e+01 7.42e-01 6.50e-02  -5.2 5.51e+03  -5.8 1.00e+00 1.00e+00f  1
iter    objective    inf_pr   inf_du lg(mu)  ||d||  lg(rg) alpha_du alpha_pr  ls
 350r 7.2814989e+01 7.42e-01 3.65e+02  -5.2 2.56e+04  -6.3 3.41e-01 5.04e-01f  1
 351r 7.2814989e+01 7.42e-01 1.06e+01  -5.2 1.04e+04  -5.8 2.29e-01 5.53e-06f  1
 352r 7.2814988e+01 7.42e-01 1.63e+03  -5.2 1.46e+04  -6.3 3.33e-01 5.67e-07f  1
 353r 7.2730193e+01 7.42e-01 1.39e+03  -5.2 2.46e+04  -6.8 5.76e-02 7.58e-02f  1
 354r 7.2730152e+01 7.42e-01 1.39e+03  -5.2 5.24e+05    -  9.17e-07 2.32e-06f  1
 355r 7.2348413e+01 7.43e-01 1.34e+03  -5.2 1.10e+06    -  6.35e-02 2.68e-02f  1
 356r 7.2348382e+01 7.43e-01 1.45e+03  -5.2 2.41e+05    -  1.71e-01 1.99e-06f  1
 357r 7.1282073e+01 7.43e-01 1.26e+03  -5.2 1.94e+05    -  2.45e-06 6.71e-02f  1
 358r 7.1281972e+01 7.43e-01 1.71e+03  -5.2 1.24e+05    -  5.24e-01 6.63e-06f  1
 359r 6.7256719e+01 7.43e-01 9.56e+02  -5.2 1.11e+05    -  9.11e-06 2.76e-01f  1
iter    objective    inf_pr   inf_du lg(mu)  ||d||  lg(rg) alpha_du alpha_pr  ls
 360r 6.7256663e+01 7.43e-01 9.56e+02  -5.2 4.91e+04    -  2.93e-01 5.20e-06f  1
 361r 6.6174757e+01 7.43e-01 8.61e+02  -5.2 4.79e+04    -  1.00e+00 9.91e-02f  1
 362r 6.5612921e+01 7.43e-01 8.11e+02  -5.2 4.54e+04    -  1.00e+00 5.78e-02f  1
 363r 6.4100538e+01 7.43e-01 6.25e+02  -5.2 4.41e+04    -  1.00e+00 1.68e-01f  1
 364r 6.3186167e+01 7.43e-01 5.53e+02  -5.2 4.11e+04    -  1.00e+00 1.26e-01f  1
 365r 6.0496159e+01 7.43e-01 3.12e+02  -5.2 3.96e+04    -  1.00e+00 4.29e-01f  1
 366r 5.8423525e+01 7.43e-01 1.20e+02  -5.2 4.57e+04    -  1.00e+00 6.15e-01f  1
 367r 5.8423523e+01 7.43e-01 3.99e+02  -5.2 6.64e+04    -  1.00e+00 2.06e-06h  1
 368r 5.7299166e+01 7.43e-01 1.05e+01  -5.2 6.87e+03    -  1.00e+00 9.13e-01f  1
 369r 5.7233325e+01 7.43e-01 6.60e+00  -5.2 7.10e+02    -  1.00e+00 6.33e-01f  1
iter    objective    inf_pr   inf_du lg(mu)  ||d||  lg(rg) alpha_du alpha_pr  ls
 370r 5.7195095e+01 7.43e-01 2.24e-06  -5.2 2.62e+02    -  1.00e+00 1.00e+00f  1
 371r 5.7195170e+01 7.43e-01 1.81e-03  -7.7 6.47e+01    -  1.00e+00 1.00e+00f  1
 372r 5.7159845e+01 7.43e-01 9.44e+02  -7.7 1.61e+04  -7.3 1.00e+00 1.63e-02f  1
 373r 5.6330741e+01 7.43e-01 9.11e+02  -7.7 4.17e+04  -7.8 1.00e+00 1.41e-01f  1
 374r 5.6330649e+01 7.43e-01 1.09e+03  -7.7 2.20e+05  -8.2 1.00e+00 6.31e-06f  1
 375r 5.2703673e+01 7.44e-01 4.34e+02  -7.7 5.01e+04  -7.8 1.00e+00 5.92e-01f  1
 376r 5.2703672e+01 7.44e-01 8.79e+02  -7.7 8.23e+05  -8.3 1.00e+00 3.95e-08f  1
 377r 5.1644244e+01 7.44e-01 8.05e+02  -7.7 7.72e+04  -7.9 1.00e+00 1.78e-01f  1
 378r 5.1644232e+01 7.44e-01 9.65e+02  -7.7 2.53e+04  -7.4 1.00e+00 5.37e-06f  1
 379r 5.0583200e+01 7.44e-01 8.14e+02  -7.7 1.13e+05  -7.9 1.00e+00 1.71e-01f  1
iter    objective    inf_pr   inf_du lg(mu)  ||d||  lg(rg) alpha_du alpha_pr  ls
 380r 4.9560844e+01 7.44e-01 5.26e+02  -7.7 3.54e+04  -7.5 1.00e+00 4.34e-01f  1
 381r 4.9560842e+01 7.44e-01 9.18e+02  -7.7 5.26e+05  -8.0 1.00e+00 2.77e-07f  1
 382r 4.7603963e+01 7.44e-01 1.62e+02  -7.7 5.14e+04  -7.5 1.00e+00 8.28e-01f  1
 383r 4.7603963e+01 7.44e-01 1.25e+03  -7.7 5.00e+04  -8.0 1.00e+00 1.04e-08h  1
 384r 4.4984794e+01 7.44e-01 6.99e+02  -7.7 1.55e+05  -8.5 1.00e+00 2.17e-01f  1
 385r 4.4984722e+01 7.44e-01 7.11e+02  -7.7 7.42e+07  -9.0 1.51e-01 1.42e-07f  1
 386r 4.4461874e+01 7.44e-01 6.99e+02  -7.7 2.24e+05  -8.5 1.00e+00 4.63e-02f  1
 387r 4.4461823e+01 7.44e-01 9.17e+02  -7.7 6.39e+04  -8.1 1.00e+00 9.71e-06f  1
 388r 4.4233302e+01 7.44e-01 9.30e+02  -7.7 2.98e+05  -8.6 1.00e+00 1.96e-02f  1
 389r 4.0482426e+01 7.44e-01 2.17e+02  -7.7 7.54e+04  -8.2 1.00e+00 7.68e-01f  1
iter    objective    inf_pr   inf_du lg(mu)  ||d||  lg(rg) alpha_du alpha_pr  ls
 390r 4.0482425e+01 7.44e-01 8.16e+02  -7.7 1.51e+06  -8.6 1.00e+00 1.32e-07f  1
 391r 3.9492598e+01 7.44e-01 6.01e+02  -7.7 1.24e+05  -8.2 1.00e+00 2.78e-01f  1
 392r 3.9492596e+01 7.44e-01 8.63e+02  -7.7 4.36e+04  -7.8 1.00e+00 1.34e-06h  1
 393r 3.9290908e+01 7.44e-01 8.31e+02  -7.7 2.15e+05  -8.3 1.00e+00 7.47e-02f  1
 394r 3.9290603e+01 7.44e-01 9.27e+02  -7.7 5.20e+05  -8.7 1.00e+00 1.02e-04f  1
 395r 3.9191616e+01 7.44e-01 8.68e+02  -7.7 1.03e+05  -8.3 1.00e+00 3.80e-02f  1
 396r 3.9624335e+01 7.44e-01 1.55e+03  -7.7 4.22e+05    -  1.00e+00 1.06e-02f  1
 397r 4.5868612e+01 7.44e-01 1.35e+03  -7.7 4.22e+05    -  1.00e+00 1.29e-01f  1
 398r 4.5868619e+01 7.44e-01 1.10e+03  -7.7 2.63e+05    -  1.00e+00 2.55e-07h  1
 399r 4.7704314e+01 7.45e-01 1.03e+03  -7.7 2.63e+05    -  1.00e+00 6.83e-02f  1
iter    objective    inf_pr   inf_du lg(mu)  ||d||  lg(rg) alpha_du alpha_pr  ls
 400r 4.7704436e+01 7.45e-01 8.94e+02  -7.7 1.66e+05    -  1.00e+00 1.12e-05h  1
 401r 5.4106095e+01 7.45e-01 4.27e+02  -7.7 1.66e+05    -  1.00e+00 5.22e-01f  1
 402r 5.4106094e+01 7.45e-01 3.15e+02  -7.7 2.47e+04    -  1.00e+00 1.53e-07h  1
 403r 5.3057704e+01 7.44e-01 2.87e-02  -7.7 2.07e+04    -  1.00e+00 1.00e+00h  1
 404r 5.2989324e+01 7.44e-01 3.60e-05  -7.7 3.13e+02    -  1.00e+00 1.00e+00h  1

Number of Iterations....: 404

                                   (scaled)                 (unscaled)
Objective...............:   5.2989308729210443e+01    5.2989308729210443e+01
Dual infeasibility......:   2.9734109346700151e-04    2.9734109346700151e-04
Constraint violation....:   7.4412758199110707e-01    7.4412758199110707e-01
Complementarity.........:   1.7859148246846006e-08    1.7859148246846006e-08
Overall NLP error.......:   7.4412758199110707e-01    7.4412758199110707e-01


Number of objective function evaluations             = 483
Number of objective gradient evaluations             = 19
Number of equality constraint evaluations            = 483
Number of inequality constraint evaluations          = 0
Number of equality constraint Jacobian evaluations   = 409
Number of inequality constraint Jacobian evaluations = 0
Number of Lagrangian Hessian evaluations             = 405
Total CPU secs in IPOPT (w/o function evaluations)   =      0.668
Total CPU secs in NLP function evaluations           =      8.063

EXIT: Converged to a point of local infeasibility. Problem may be infeasible.
